experiment/data/lkh-res/Vrp-Set-Golden-n481/Vrp-Set-Golden-n481-lkh/1.lkh1.tour
NAME : 1.1372845.tour
COMMENT : Length = 1372845
COMMENT : Found by LKH-3 [Keld Helsgaun] Tue Apr  9 02:17:25 2024
TYPE : TOUR
DIMENSION : 490
TOUR_SECTION
1
24
64
63
62
102
103
104
144
184
185
225
265
305
345
385
425
465
464
424
384
344
304
264
224
223
263
303
343
383
423
463
462
422
382
342
302
262
222
182
183
143
142
141
101
61
21
22
23
487
10
50
51
91
90
130
131
171
170
169
209
249
289
329
369
409
449
450
410
370
330
290
250
210
211
251
291
331
371
411
451
412
452
453
413
373
333
372
332
292
293
253
252
212
172
132
133
93
92
52
12
11
485
30
70
71
72
112
111
110
150
190
230
270
310
350
390
430
470
431
471
472
432
392
352
391
351
311
312
272
271
231
232
192
191
151
152
153
154
114
113
73
33
32
31
486
34
74
75
115
155
195
194
193
233
273
313
353
393
433
473
474
434
394
354
314
274
234
235
275
315
355
395
435
475
476
436
396
356
316
276
236
196
156
116
76
36
35
488
4
44
43
83
84
124
123
163
164
204
244
284
324
364
404
444
443
403
363
323
283
243
203
202
242
282
322
362
402
442
481
441
401
361
321
281
241
201
162
122
161
121
82
42
81
41
2
3
483
17
18
58
57
56
55
95
135
175
176
177
217
257
297
337
377
417
457
456
416
376
336
296
256
216
215
255
295
335
375
415
455
454
414
374
334
294
254
214
213
173
174
134
94
54
53
13
14
15
16
484
7
6
5
45
46
47
48
88
87
86
85
125
165
205
245
285
325
365
405
445
446
406
366
326
286
246
206
207
247
287
327
367
407
447
448
408
368
328
288
248
208
168
167
166
126
127
128
129
89
49
9
8
482
27
28
29
69
68
67
66
106
107
108
109
149
189
229
269
309
349
389
429
469
468
428
388
348
308
268
228
227
267
307
347
387
427
467
466
426
386
346
306
266
226
186
187
188
148
147
146
145
105
65
25
26
490
19
59
99
98
97
96
136
137
138
178
218
258
298
338
378
418
458
459
419
379
339
299
259
219
220
260
300
340
380
420
460
461
421
381
341
301
261
221
181
180
179
139
140
100
60
20
489
38
39
40
80
120
160
200
240
280
320
360
400
440
480
479
439
399
359
319
279
239
238
278
318
358
398
438
478
477
437
397
357
317
277
237
197
198
199
159
158
157
117
118
119
79
78
77
37
-1
EOF
